&inputpp
prefix='pwscf'
outdir='./tmp_$i'
filplot='./tmp_$i/scf.rho'
plot_num=7
kpoint=1
kband(1)=564
kband(2)=565
/

&plot
nfile=1
filepp(1)='./tmp_$i/scf.rho'
iflag=3
output_format=6
fileout='.cube'
/

